34908
0 0 0 1 1 1 1 1 1 0 1 1 0 0 0 0 0 0 0 0 0 1 1 0 0 0 0 1 1 0 
7 6 21 27 21 6 21 27 22 28 4 28 10 3 28 7 3 10 22 27 27 21 5 27 10 27 27 28 4 21 6 4 4 21 27 6 8 8 27 21 7 8 6 4 8 4 3 21 6 10 27 22 21 21 8 6 11 8 22 7 4 5 7 8 3 11 5 28 28 11 7 6 6 8 5 10 10 5 8 22 10 5 8 7 4 10 6 5 27 7 28 6 7 11 5 3 11 6 10 28 28 21 11 7 4 27 4 27 22 3 6 4 27 6 11 8 28 7 28 8 8 11 28 6 4 21 21 11 4 28 28 21 11 10 5 8 3 3 28 10 11 22 11 11 11 5 27 21 27 7 27 28 10 28 8 11 5 21 3 3 3 27 10 21 5 28 5 4 3 21 5 8 28 10 4 5 27 10 4 10 5 21 5 6 11 8 11 10 28 22 5 5 6 4 7 6 7 10 8 6 

Total Run Time: 342133 ms.
